Route #1: 394 441 40 282 902 119 23 524 519 65 
Route #2: 417 77 604 66 129 778 742 781 
Route #3: 218 371 745 968 643 143 844 956 661 
Route #4: 544 278 511 308 191 712 898 915 979 732 
Route #5: 667 926 488 800 211 359 442 804 715 888 923 
Route #6: 615 808 964 988 277 286 824 355 
Route #7: 758 774 305 884 985 136 410 477 
Route #8: 32 520 357 686 243 499 900 1000 
Route #9: 306 294 504 766 343 930 756 241 230 169 540 
Route #10: 402 456 963 466 987 31 276 670 207 
Route #11: 155 590 69 87 585 365 120 521 996 
Route #12: 224 312 702 495 796 951 566 21 737 676 
Route #13: 337 573 638 72 613 947 588 439 751 
Route #14: 130 725 612 904 855 13 78 794 971 628 376 817 
Route #15: 368 577 533 329 249 945 20 46 689 138 905 946 225 
Route #16: 36 561 581 933 52 654 335 918 530 444 699 59 140 
Route #17: 183 663 714 498 438 22 311 893 266 
Cost: 243912
